Value of objective function:          -1779.5
Ssub4                    1
Tsub4               2.3668
Ssub1'                   1
Ssub2'                   1
Tsub1'              5.8146
Ssub3'                   3
Tsub2'              5.4286
T_max               9.7303
Ssub4'                   1
Tsub3'              6.2364
Tsub4'              4.8163
tsub4               2.3668
Sint13                   3
Tint13              2.5876
tsub1'               3.227
tsub2'              2.7368
tsub3'              3.6488
tsub4'              2.4495
Sint13'             1.0266
Tint13'             5.7986
tint13              2.5876
tint13'              3.211
SF1                      1
SF2                 1.5309
TF1                 9.7303
SF3                      1
TF2                 9.7303
SF4                      1
TF3                 9.7303
SF5                      1
TF4                 9.3603
SF6                      1
TF5                 8.9903
SF7                      3
TF6                 9.3603
TF7                 9.7303
Sa'                 1.6322
Sb'                 1.8399
Ta'                 2.5876
Sc'                      1
Tb'                 2.6917
Sd'                      3
Tc'                 3.2939
Td'                 2.1999
tF1                 3.9317
tF2                 3.9157
tF3                 4.3017
tF4                 3.5617
tF5                 3.1917
tF6                 3.5617
tF7                 3.4939
ta'                 2.5876
tb'                 2.6917
tc'                 3.2939
td'                 2.1999
